15 50 67 96 70 
83 23 21 32 34 27 
92 63 84 44 39 35 
64 16 13 78 79 45 4 
65 69 98 52 20 62 68 
14 47 86 97 55 
5 8 7 2 3 1 56 91 
77 22 49 19 76 48 24 
59 90 81 54 41 80 
29 28 33 85 89 66 
72 38 87 10 17 
95 31 94 42 43 36 
11 12 9 99 57 74 25 
88 53 82 73 6 100 60 
61 71 93 26 
75 58 18 
30 37 40 
51 46 

